;test regex echo 123456789012345678901234567890 | sed -r 's/(.{9}).{11}/\1XXXXXXXXXX/'
(declare-const X String)
(assert (str.in_re X (re.union (re.++ (str.to_re "e") (re.++ (str.to_re "c") (re.++ (str.to_re "h") (re.++ (str.to_re "o") (re.++ (str.to_re " ") (re.++ (str.to_re "123456789012345678901234567890") (str.to_re " "))))))) (re.++ (str.to_re " ") (re.++ (str.to_re "s") (re.++ (str.to_re "e") (re.++ (str.to_re "d") (re.++ (str.to_re " ") (re.++ (str.to_re "-") (re.++ (str.to_re "r") (re.++ (str.to_re " ") (re.++ (str.to_re "\u{27}") (re.++ (str.to_re "s") (re.++ (str.to_re "/") (re.++ ((_ re.loop 9 9) (re.diff re.allchar (str.to_re "\n"))) (re.++ ((_ re.loop 11 11) (re.diff re.allchar (str.to_re "\n"))) (re.++ (str.to_re "/") (re.++ (_ re.reference 1) (re.++ (str.to_re "X") (re.++ (str.to_re "X") (re.++ (str.to_re "X") (re.++ (str.to_re "X") (re.++ (str.to_re "X") (re.++ (str.to_re "X") (re.++ (str.to_re "X") (re.++ (str.to_re "X") (re.++ (str.to_re "X") (re.++ (str.to_re "X") (re.++ (str.to_re "/") (str.to_re "\u{27}"))))))))))))))))))))))))))))))
; sanitize danger characters:  < > ' " &
(assert (not (str.in_re X (re.++ re.all (re.union (str.to_re "\u{3c}") (str.to_re "\u{3e}") (str.to_re "\u{27}") (str.to_re "\u{22}") (str.to_re "\u{26}")) re.all))))
(assert (< 9 (str.len X)))
(check-sat)
(get-model)